
Gurobi 9.5.1 (linux64, gurobi_cl) logging started Tue Jan 31 12:57:33 2023

Set parameter Username
Set parameter TimeLimit to value 7200
Set parameter LogFile to value "./log/reopt_p2/problem2_25.log"
Set parameter Threads to value 1
Academic license - for non-commercial use only - expires 2023-07-13
Using license file /opt/gurobi951/linux64/gurobi.lic

Gurobi Optimizer version 9.5.1 build v9.5.1rc2 (linux64)
Copyright (c) 2022, Gurobi Optimization, LLC

Read MPS format model from file ./ins/reopt_p2/problem2_25.mps.mps.gz
Reading time = 1.67 seconds
problem_: 355776 rows, 957937 columns, 2098818 nonzeros
Thread count: 112 physical cores, 224 logical processors, using up to 1 threads
Optimize a model with 355776 rows, 957937 columns and 2098818 nonzeros
Model fingerprint: 0x877827b0
Variable types: 0 continuous, 957937 integer (957937 binary)
Coefficient statistics:
  Matrix range     [5e-02, 2e+02]
  Objective range  [1e-01, 9e+01]
  Bounds range     [1e+00, 1e+00]
  RHS range        [1e+00, 1e+00]
Presolve removed 1022 rows and 1796 columns (presolve time = 5s) ...
Presolve removed 1180 rows and 1954 columns (presolve time = 165s) ...
Presolve removed 1180 rows and 1954 columns
Presolve time: 165.90s
Presolved: 354596 rows, 955983 columns, 2095800 nonzeros
Variable types: 0 continuous, 955983 integer (955983 binary)
Found heuristic solution: objective 510304.22700

Root simplex log...

Iteration    Objective       Primal Inf.    Dual Inf.      Time
       0    2.4926457e+04   2.432000e+03   0.000000e+00    184s
    6990    3.6669760e+04   0.000000e+00   0.000000e+00    184s

Use crossover to convert LP symmetric solution to basic solution...

Root crossover log...

       0 DPushes remaining with DInf 0.0000000e+00               184s

       0 PPushes remaining with PInf 0.0000000e+00               184s

  Push phase complete: Pinf 0.0000000e+00, Dinf 3.5809817e-11    184s


Root simplex log...

Iteration    Objective       Primal Inf.    Dual Inf.      Time
    7595    3.6669760e+04   0.000000e+00   0.000000e+00    184s
    7595    3.6669760e+04   0.000000e+00   0.000000e+00    185s

Root relaxation: objective 3.666976e+04, 7595 iterations, 3.42 seconds (1.88 work units)
Total elapsed time = 186.15s

    Nodes    |    Current Node    |     Objective Bounds      |     Work
 Expl Unexpl |  Obj  Depth IntInf | Incumbent    BestBd   Gap | It/Node Time

     0     0 36669.7604    0 9488 510304.227 36669.7604  92.8%     -  266s
H    0     0                    198302.48300 36669.7604  81.5%     -  266s
     0     0 39710.0236    0 12941 198302.483 39710.0236  80.0%     -  299s
H    0     0                    194119.09700 39710.0236  79.5%     -  310s
     0     0 39730.3407    0 13650 194119.097 39730.3407  79.5%     -  328s
     0     0 39740.0795    0 13605 194119.097 39740.0795  79.5%     -  380s
     0     0 39740.9670    0 13598 194119.097 39740.9670  79.5%     -  382s
     0     0 43021.1745    0 17816 194119.097 43021.1745  77.8%     -  840s
     0     0 43229.4343    0 19076 194119.097 43229.4343  77.7%     -  957s
     0     0 43244.0232    0 16181 194119.097 43244.0232  77.7%     - 1000s
     0     0 43246.1088    0 17663 194119.097 43246.1088  77.7%     - 1035s
     0     0 43249.3675    0 17310 194119.097 43249.3675  77.7%     - 1039s
     0     0 43250.6118    0 17310 194119.097 43250.6118  77.7%     - 1042s
     0     0 46236.9154    0 42174 194119.097 46236.9154  76.2%     - 2770s
H    0     0                    193779.96400 46236.9154  76.1%     - 2789s
     0     0 47043.4718    0 61620 193779.964 47043.4718  75.7%     - 3792s
     0     0 47184.0315    0 39053 193779.964 47184.0315  75.7%     - 4003s
     0     0 47213.1903    0 32366 193779.964 47213.1903  75.6%     - 4121s
     0     0 47223.0567    0 33149 193779.964 47223.0567  75.6%     - 4189s
     0     0 47229.0005    0 31154 193779.964 47229.0005  75.6%     - 4219s
     0     0 47242.1979    0 33004 193779.964 47242.1979  75.6%     - 4262s
     0     0 47246.6701    0 33629 193779.964 47246.6701  75.6%     - 4288s
     0     0 47247.2922    0 33024 193779.964 47247.2922  75.6%     - 4293s
     0     0 48931.1318    0 103677 193779.964 48931.1318  74.7%     - 6231s
H    0     0                    193687.85800 48931.1318  74.7%     - 6235s
     0     0          -    0      193687.858 48931.1318  74.7%     - 7200s

Cutting planes:
  Gomory: 244
  Lift-and-project: 1
  Cover: 17420
  Clique: 6738
  MIR: 4576
  StrongCG: 1143

Explored 1 nodes (623561 simplex iterations) in 7200.08 seconds (5495.47 work units)
Thread count was 1 (of 224 available processors)

Solution count 5: 193688 193780 194119 ... 510304

Time limit reached
Best objective 1.936878580000e+05, best bound 4.893113180544e+04, gap 74.7371%

Gurobi 10.0.2 (linux64) logging started Tue Sep  5 17:38:00 2023

Set parameter LogFile to value "../reopt_p2/problem2_25.log"
Set parameter TimeLimit to value 600
Gurobi Optimizer version 10.0.2 build v10.0.2rc0 (linux64)

CPU model: Intel(R) Xeon(R) Platinum 8280 CPU @ 2.70GHz, instruction set [SSE2|AVX|AVX2|AVX512]
Thread count: 112 physical cores, 112 logical processors, using up to 32 threads

Optimize a model with 355776 rows, 957937 columns and 2098818 nonzeros
Model fingerprint: 0x877827b0
Variable types: 0 continuous, 957937 integer (957937 binary)
Coefficient statistics:
  Matrix range     [5e-02, 2e+02]
  Objective range  [1e-01, 9e+01]
  Bounds range     [1e+00, 1e+00]
  RHS range        [1e+00, 1e+00]
Presolve removed 919 rows and 1035 columns (presolve time = 5s) ...
Presolve removed 1180 rows and 1954 columns (presolve time = 10s) ...
Presolve removed 1180 rows and 1954 columns (presolve time = 279s) ...
Presolve removed 1180 rows and 1954 columns
Presolve time: 279.85s
Presolved: 354596 rows, 955983 columns, 2095800 nonzeros
Variable types: 0 continuous, 955983 integer (955983 binary)
Found heuristic solution: objective 510304.22700
Deterministic concurrent LP optimizer: primal simplex, dual simplex, and barrier
Showing barrier log only...

Root barrier log...

Ordering time: 0.13s

Barrier statistics:
 AA' NZ     : 1.287e+06
 Factor NZ  : 3.593e+06 (roughly 60 MB of memory)
 Factor Ops : 7.265e+08 (less than 1 second per iteration)
 Threads    : 30

                  Objective                Residual
Iter       Primal          Dual         Primal    Dual     Compl     Time
   0   2.19303976e+06 -1.40152502e+07  4.20e+01 2.34e+01  7.37e+02   304s
   1   7.31928008e+05 -8.35647256e+06  1.28e+01 2.84e-13  2.23e+02   304s
   2   2.08132894e+05 -2.44881115e+06  2.60e+00 2.59e-13  4.34e+01   304s

Barrier performed 2 iterations in 303.79 seconds (113.63 work units)
Barrier solve interrupted - model solved by another algorithm

Concurrent spin time: 0.16s (can be avoided by choosing Method=3)

Solved with primal simplex

Use crossover to convert LP symmetric solution to basic solution...

Root crossover log...

       0 DPushes remaining with DInf 0.0000000e+00               304s

       0 PPushes remaining with PInf 0.0000000e+00               304s

  Push phase complete: Pinf 0.0000000e+00, Dinf 2.4643721e-11    304s


Root simplex log...

Iteration    Objective       Primal Inf.    Dual Inf.      Time
   13466    3.6669760e+04   0.000000e+00   0.000000e+00    304s
   13466    3.6669760e+04   0.000000e+00   0.000000e+00    305s

Root relaxation: objective 3.666976e+04, 13466 iterations, 4.59 seconds (1.86 work units)
Total elapsed time = 307.73s

    Nodes    |    Current Node    |     Objective Bounds      |     Work
 Expl Unexpl |  Obj  Depth IntInf | Incumbent    BestBd   Gap | It/Node Time

     0     0 36669.7604    0 9488 510304.227 36669.7604  92.8%     -  395s
H    0     0                    198302.48300 36669.7604  81.5%     -  395s
     0     0 39710.0236    0 12941 198302.483 39710.0236  80.0%     -  424s
H    0     0                    194200.56500 39710.0236  79.6%     -  438s
     0     0 39730.3407    0 13650 194200.565 39730.3407  79.5%     -  455s
     0     0 39740.0795    0 13605 194200.565 39740.0795  79.5%     -  502s
     0     0 39740.9670    0 13598 194200.565 39740.9670  79.5%     -  519s
     0     0 43018.0100    0 17231 194200.565 43018.0100  77.8%     -  555s
     0     0 43217.2185    0 18506 194200.565 43217.2185  77.7%     -  580s
     0     0 43231.6057    0 15600 194200.565 43231.6057  77.7%     -  596s
     0     0 43233.9018    0 17081 194200.565 43233.9018  77.7%     -  600s

Cutting planes:
  Gomory: 158
  Cover: 7924
  Clique: 2618
  MIR: 1989
  StrongCG: 1074

Explored 1 nodes (24688 simplex iterations) in 600.13 seconds (160.17 work units)
Thread count was 32 (of 112 available processors)

Solution count 3: 194201 198302 510304 

Time limit reached
Best objective 1.942005650000e+05, best bound 4.323390180721e+04, gap 77.7375%

Gurobi 10.0.2 (linux64) logging started Wed Sep  6 12:59:20 2023

Set parameter LogFile to value "../reopt_p2/problem2_25.log"
Set parameter TimeLimit to value 600
Set parameter Threads to value 30
Gurobi Optimizer version 10.0.2 build v10.0.2rc0 (linux64)

CPU model: Intel(R) Xeon(R) Platinum 8280 CPU @ 2.70GHz, instruction set [SSE2|AVX|AVX2|AVX512]
Thread count: 112 physical cores, 112 logical processors, using up to 30 threads

Optimize a model with 355776 rows, 957937 columns and 2098818 nonzeros
Model fingerprint: 0x877827b0
Variable types: 0 continuous, 957937 integer (957937 binary)
Coefficient statistics:
  Matrix range     [5e-02, 2e+02]
  Objective range  [1e-01, 9e+01]
  Bounds range     [1e+00, 1e+00]
  RHS range        [1e+00, 1e+00]
Presolve removed 1180 rows and 1954 columns (presolve time = 5s) ...
Presolve removed 1180 rows and 1954 columns (presolve time = 99s) ...
Presolve removed 1180 rows and 1954 columns
Presolve time: 99.12s
Presolved: 354596 rows, 955983 columns, 2095800 nonzeros
Variable types: 0 continuous, 955983 integer (955983 binary)
Found heuristic solution: objective 510304.22700
Deterministic concurrent LP optimizer: primal simplex, dual simplex, and barrier
Showing barrier log only...

Root barrier log...

Ordering time: 0.12s

Barrier statistics:
 AA' NZ     : 1.287e+06
 Factor NZ  : 3.593e+06 (roughly 60 MB of memory)
 Factor Ops : 7.265e+08 (less than 1 second per iteration)
 Threads    : 28

                  Objective                Residual
Iter       Primal          Dual         Primal    Dual     Compl     Time
   0   2.19303976e+06 -1.40152502e+07  4.20e+01 2.34e+01  7.37e+02   116s
   1   7.31928008e+05 -8.35647256e+06  1.28e+01 2.84e-13  2.23e+02   116s
   2   2.08132894e+05 -2.44881115e+06  2.60e+00 2.20e-13  4.34e+01   116s

Barrier performed 2 iterations in 115.59 seconds (113.63 work units)
Barrier solve interrupted - model solved by another algorithm

Concurrent spin time: 0.16s (can be avoided by choosing Method=3)

Solved with primal simplex

Use crossover to convert LP symmetric solution to basic solution...

Root crossover log...

       0 DPushes remaining with DInf 0.0000000e+00               116s

       0 PPushes remaining with PInf 0.0000000e+00               116s

  Push phase complete: Pinf 0.0000000e+00, Dinf 2.4643721e-11    116s


Root simplex log...

Iteration    Objective       Primal Inf.    Dual Inf.      Time
   13466    3.6669760e+04   0.000000e+00   0.000000e+00    116s
   13466    3.6669760e+04   0.000000e+00   0.000000e+00    116s

Root relaxation: objective 3.666976e+04, 13466 iterations, 3.14 seconds (1.86 work units)

    Nodes    |    Current Node    |     Objective Bounds      |     Work
 Expl Unexpl |  Obj  Depth IntInf | Incumbent    BestBd   Gap | It/Node Time

     0     0 36669.7604    0 9488 510304.227 36669.7604  92.8%     -  164s
H    0     0                    198302.48300 36669.7604  81.5%     -  165s
     0     0 39710.0236    0 12941 198302.483 39710.0236  80.0%     -  184s
H    0     0                    194200.56500 39710.0236  79.6%     -  194s
     0     0 39730.3407    0 13650 194200.565 39730.3407  79.5%     -  205s
     0     0 39740.0795    0 13605 194200.565 39740.0795  79.5%     -  234s
     0     0 39740.9670    0 13598 194200.565 39740.9670  79.5%     -  245s
     0     0 43018.0100    0 17231 194200.565 43018.0100  77.8%     -  265s
     0     0 43217.2185    0 18506 194200.565 43217.2185  77.7%     -  280s
     0     0 43231.6057    0 15600 194200.565 43231.6057  77.7%     -  290s
     0     0 43233.9018    0 17081 194200.565 43233.9018  77.7%     -  301s
     0     0 43237.1604    0 16727 194200.565 43237.1604  77.7%     -  316s
     0     0 43238.4048    0 16727 194200.565 43238.4048  77.7%     -  332s
     0     0 46020.5739    0 42684 194200.565 46020.5739  76.3%     -  379s
H    0     0                    194088.38100 46020.5739  76.3%     -  393s
     0     0 46797.3180    0 59294 194088.381 46797.3180  75.9%     -  448s
     0     0 46920.4402    0 36779 194088.381 46920.4402  75.8%     -  470s
     0     0 46958.7434    0 32852 194088.381 46958.7434  75.8%     -  490s
     0     0 46976.5694    0 34055 194088.381 46976.5694  75.8%     -  504s
     0     0 46987.7949    0 34973 194088.381 46987.7949  75.8%     -  516s
     0     0 47000.1919    0 31697 194088.381 47000.1919  75.8%     -  528s
     0     0 47002.0784    0 33485 194088.381 47002.0784  75.8%     -  536s
     0     0 47002.4085    0 31614 194088.381 47002.4085  75.8%     -  548s
     0     0          -    0      194088.381 47002.4085  75.8%     -  600s

Cutting planes:
  Gomory: 128
  Lift-and-project: 2
  Cover: 18856
  Clique: 6566
  MIR: 5118
  StrongCG: 1981

Explored 1 nodes (91162 simplex iterations) in 600.11 seconds (472.29 work units)
Thread count was 30 (of 112 available processors)

Solution count 4: 194088 194201 198302 510304 

Time limit reached
Best objective 1.940883810000e+05, best bound 4.700240851744e+04, gap 75.7830%
